Rodando pra 1h
Optimize a model with 490139 rows, 734150 columns and 4890038 nonzeros
Coefficient statistics:
  Matrix range    [1e+00, 1e+06]
  Objective range [5e-01, 5e-01]
  Bounds range    [1e+00, 1e+06]
  RHS range       [1e+00, 7e+02]
Presolve removed 0 rows and 0 columns (presolve time = 5s) ...
Presolve time: 9.59s
Presolved: 490139 rows, 734150 columns, 4890038 nonzeros
Variable types: 489400 continuous, 244750 integer (244750 binary)
Optimize a model with 490139 rows, 734150 columns and 4890038 nonzeros
Coefficient statistics:
  Matrix range    [1e+00, 1e+06]
  Objective range [5e-01, 5e-01]
  Bounds range    [1e+00, 1e+06]
  RHS range       [1e+00, 7e+02]
Presolved: 490139 rows, 734150 columns, 4890038 nonzeros


Root simplex log...

Iteration    Objective       Primal Inf.    Dual Inf.      Time
       0    0.0000000e+00   2.114683e+03   0.000000e+00     32s
    1477    0.0000000e+00   0.000000e+00   0.000000e+00     34s

Root relaxation: objective 0.000000e+00, 1477 iterations, 4.54 seconds

    Nodes    |    Current Node    |     Objective Bounds      |     Work
 Expl Unexpl |  Obj  Depth IntInf | Incumbent    BestBd   Gap | It/Node Time

     0     0    0.00000    0  727          -    0.00000      -     -  769s
     0     0    0.00000    0  573          -    0.00000      -     - 1811s
     0     0    0.00000    0  419          -    0.00000      -     - 1813s
     0     0    0.00000    0  270          -    0.00000      -     - 1951s
     0     0    0.00000    0  116          -    0.00000      -     - 1954s
     0     0    0.00000    0   40          -    0.00000      -     - 2003s
     0     0    0.00000    0   39          -    0.00000      -     - 2006s
     0     0    0.00000    0  120          -    0.00000      -     - 2029s
     0     0    0.00000    0  120          -    0.00000      -     - 2033s
     0     0    0.00000    0   79          -    0.00000      -     - 3600s

Cutting planes:
  MIR: 4
  Flow cover: 725

Explored 0 nodes (970607 simplex iterations) in 3600.19 seconds
Thread count was 1 (of 4 available processors)

Time limit reached
Best objective -, best bound 0.000000000000e+00, gap -
Tempo: 3594.56 segundos

Error code = 10004
Var::get
